(declare-const __VERIFIER_assert__cond___49 Int)
(declare-const |havoc:2:156:579| Int)
(declare-const |havoc:12:159:413:545:563:582| Int)
(declare-const |__tmp_3137_0':377:406:423:555:573:592| Int)
(declare-const |__VERIFIER_assert__cond___49':382:407:424:556:574:593| Int)
(declare-const havoc Int)
(declare-const |K:401:402:419:551:569:588| Int)
(declare-const |havoc:27:164:418:550:568:587| Int)
(declare-const |havoc:15:160:414:546:564:583| Int)
(declare-const |main____CPAchecker_TMP_1___7':380:403:420:552:570:589| Int)
(declare-const |havoc:6:157:411:543:561:580| Int)
(declare-const __VERIFIER_assert__cond___50 Int)
(declare-const |havoc:9:158:412:544:562:581| Int)
(declare-const |main____CPAchecker_TMP_0___8':381:410:427:559:577:596| Int)
(declare-const |havoc:21:162:416:548:566:585| Int)
(declare-const |havoc:18:161:415:547:565:584| Int)
(declare-const |main__t':378:404:421:553:571:590| Int)
(declare-const |havoc:34:165:375:542:560:578:597| Int)
(declare-const |__VERIFIER_assert__cond___50':383:409:426:558:576:595| Int)
(declare-const |main____CPAchecker_TMP_0___7':379:408:425:557:575:594| Int)
(declare-const main____CPAchecker_TMP_0___8 Int)
(declare-const |__tmp_3137_1':376:405:422:554:572:591| Int)
(declare-const |havoc:24:163:417:549:567:586| Int)
(assert (and (<= (+ (- havoc) 1) 0) (not (= (+ (- havoc) 1) 0))
               (= |havoc:2:156:579| 0)
               (not (= (ite (<= (+ (- havoc) 1) 0) 1 0) 0))
               (not (= (+ (- havoc) 2) 0))
               (= |havoc:6:157:411:543:561:580| 0)
               (not (= (ite (<= (+ (- havoc) 2) 0) 1 0) 0))
               (not (= (+ (- havoc) 3) 0))
               (= |havoc:9:158:412:544:562:581| 0)
               (not (= (ite (<= (+ (- havoc) 3) 0) 1 0) 0))
               (not (= (+ (- havoc) 4) 0))
               (= |havoc:12:159:413:545:563:582| 0)
               (not (= (ite (<= (+ (- havoc) 4) 0) 1 0) 0))
               (not (= (+ (- havoc) 5) 0))
               (= |havoc:15:160:414:546:564:583| 0)
               (not (= (ite (<= (+ (- havoc) 5) 0) 1 0) 0))
               (not (= (+ (- havoc) 6) 0))
               (= |havoc:18:161:415:547:565:584| 0)
               (not (= (ite (<= (+ (- havoc) 6) 0) 1 0) 0))
               (not (= (+ (- havoc) 7) 0))
               (= |havoc:21:162:416:548:566:585| 0)
               (not (= (ite (<= (+ (- havoc) 7) 0) 1 0) 0))
               (not (= (+ (- havoc) 8) 0))
               (= |havoc:24:163:417:549:567:586| 0)
               (not (= (ite (<= (+ (- havoc) 8) 0) 1 0) 0))
               (not (= (+ (- havoc) 9) 0))
               (= |havoc:27:164:418:550:568:587| 0)
               (not (= (ite (<= (+ (- havoc) 9) 0) 1 0) 0))
               (or (not (and (<= (- |K:401:402:419:551:569:588|) 0)
                               (<= |K:401:402:419:551:569:588| 0)))
                     (= (+ |main____CPAchecker_TMP_1___7':380:403:420:552:570:589|
                             (- |K:401:402:419:551:569:588|) -8) 0))
               (or (not (<= (+ (- |K:401:402:419:551:569:588|) 1) 0))
                     (= (+ |main____CPAchecker_TMP_1___7':380:403:420:552:570:589|
                             (- |K:401:402:419:551:569:588|) -7) 0))
               (or (not (and (<= (- |K:401:402:419:551:569:588|) 0)
                               (<= |K:401:402:419:551:569:588| 0)))
                     (= (+ |main__t':378:404:421:553:571:590|
                             (- |K:401:402:419:551:569:588|) -9) 0))
               (or (not (<= (+ (- |K:401:402:419:551:569:588|) 1) 0))
                     (= (+ |main__t':378:404:421:553:571:590|
                             (- |K:401:402:419:551:569:588|) -9) 0))
               (or (not (and (<= (- |K:401:402:419:551:569:588|) 0)
                               (<= |K:401:402:419:551:569:588| 0)))
                     (= (+ |__tmp_3137_1':376:405:422:554:572:591|
                             (- |havoc:27:164:418:550:568:587|)) 0))
               (or (not (<= (+ (- |K:401:402:419:551:569:588|) 1) 0))
                     (= |__tmp_3137_1':376:405:422:554:572:591| 0))
               (or (not (and (<= (- |K:401:402:419:551:569:588|) 0)
                               (<= |K:401:402:419:551:569:588| 0)))
                     (= (+ |__tmp_3137_0':377:406:423:555:573:592|
                             (- |K:401:402:419:551:569:588|) -8) 0))
               (or (not (<= (+ (- |K:401:402:419:551:569:588|) 1) 0))
                     (= (+ |__tmp_3137_0':377:406:423:555:573:592|
                             (- |K:401:402:419:551:569:588|) -8) 0))
               (or (not (and (<= (- |K:401:402:419:551:569:588|) 0)
                               (<= |K:401:402:419:551:569:588| 0)))
                     (= (+ (- __VERIFIER_assert__cond___49)
                             |__VERIFIER_assert__cond___49':382:407:424:556:574:593|) 0))
               (or (not (<= (+ (- |K:401:402:419:551:569:588|) 1) 0))
                     (= (+ |__VERIFIER_assert__cond___49':382:407:424:556:574:593|
                             -1) 0))
               (or (not (and (<= (- |K:401:402:419:551:569:588|) 0)
                               (<= |K:401:402:419:551:569:588| 0)))
                     (= (+ |main____CPAchecker_TMP_0___7':379:408:425:557:575:594|
                             (- |havoc:27:164:418:550:568:587|)) 0))
               (or (not (<= (+ (- |K:401:402:419:551:569:588|) 1) 0))
                     (= |main____CPAchecker_TMP_0___7':379:408:425:557:575:594| 0))
               (or (not (and (<= (- |K:401:402:419:551:569:588|) 0)
                               (<= |K:401:402:419:551:569:588| 0)))
                     (= (+ (- __VERIFIER_assert__cond___50)
                             |__VERIFIER_assert__cond___50':383:409:426:558:576:595|) 0))
               (or (not (<= (+ (- |K:401:402:419:551:569:588|) 1) 0))
                     (= (+ |__VERIFIER_assert__cond___50':383:409:426:558:576:595|
                             -1) 0))
               (or (not (and (<= (- |K:401:402:419:551:569:588|) 0)
                               (<= |K:401:402:419:551:569:588| 0)))
                     (= (+ (- main____CPAchecker_TMP_0___8)
                             |main____CPAchecker_TMP_0___8':381:410:427:559:577:596|) 0))
               (or (not (<= (+ (- |K:401:402:419:551:569:588|) 1) 0))
                     (= |main____CPAchecker_TMP_0___8':381:410:427:559:577:596| 0))
               (or (not (and (<= (- |K:401:402:419:551:569:588|) 0)
                               (<= |K:401:402:419:551:569:588| 0)))
                     (<= (+ (* 2
                                 |main____CPAchecker_TMP_1___7':380:403:420:552:570:589|)
                              (- (* |K:401:402:419:551:569:588|
                                      |K:401:402:419:551:569:588|))
                              (* -13 |K:401:402:419:551:569:588|) -16) 0))
               (or (not (<= (+ (- |K:401:402:419:551:569:588|) 1) 0))
                     (<= (+ (* 2
                                 |main____CPAchecker_TMP_1___7':380:403:420:552:570:589|)
                              (- (* |K:401:402:419:551:569:588|
                                      |K:401:402:419:551:569:588|))
                              (* -13 |K:401:402:419:551:569:588|) -16) 0))
               (or (and (= |K:401:402:419:551:569:588| 0)
                          (= (+ __VERIFIER_assert__cond___50
                                  (- |__VERIFIER_assert__cond___50':383:409:426:558:576:595|)) 0)
                          (= (+ __VERIFIER_assert__cond___49
                                  (- |__VERIFIER_assert__cond___49':382:407:424:556:574:593|)) 0)
                          (= (+ main____CPAchecker_TMP_0___8
                                  (- |main____CPAchecker_TMP_0___8':381:410:427:559:577:596|)) 0)
                          (= (+ (- |main____CPAchecker_TMP_1___7':380:403:420:552:570:589|)
                                  8) 0)
                          (= (+ (- |main____CPAchecker_TMP_0___7':379:408:425:557:575:594|)
                                  |havoc:27:164:418:550:568:587|) 0)
                          (= (+ (- |main__t':378:404:421:553:571:590|) 9) 0)
                          (= (+ (- |__tmp_3137_0':377:406:423:555:573:592|) 8) 0)
                          (= (+ (- |__tmp_3137_1':376:405:422:554:572:591|)
                                  |havoc:27:164:418:550:568:587|) 0))
                     (and (<= (+ (- |K:401:402:419:551:569:588|) 1) 0)
                            (= |havoc:27:164:418:550:568:587| 0)
                            (= |havoc:27:164:418:550:568:587| 0)
                            (<= (+ (- havoc) 11) 0)
                            (= (+ (- |main__t':378:404:421:553:571:590|)
                                    |main____CPAchecker_TMP_1___7':380:403:420:552:570:589|
                                    2) 0)
                            (= (+ |__tmp_3137_0':377:406:423:555:573:592|
                                    (- |main__t':378:404:421:553:571:590|) 1) 0)
                            (= (+ |__VERIFIER_assert__cond___50':383:409:426:558:576:595|
                                    -1) 0)
                            (= (+ |__VERIFIER_assert__cond___49':382:407:424:556:574:593|
                                    -1) 0)
                            (= |main____CPAchecker_TMP_0___7':379:408:425:557:575:594| 0)
                            (= |main____CPAchecker_TMP_0___8':381:410:427:559:577:596| 0)
                            (= |__tmp_3137_1':376:405:422:554:572:591| 0)
                            (<= (+ |main__t':378:404:421:553:571:590|
                                     (- havoc) 1) 0)
                            (<= (+ (- |main__t':378:404:421:553:571:590|) 3) 0)))
               (<= (- |K:401:402:419:551:569:588|) 0)
               (< (- |main____CPAchecker_TMP_1___7':380:403:420:552:570:589|) 0)
               (= |__tmp_3137_1':376:405:422:554:572:591| 0)
               (< (- |__tmp_3137_0':377:406:423:555:573:592|) 0)
               (= |main____CPAchecker_TMP_0___7':379:408:425:557:575:594| 0)
               (< (- |main__t':378:404:421:553:571:590|) 0)
               (< (+ (- havoc) 1) 0)
               (= (+ |__tmp_3137_0':377:406:423:555:573:592|
                       (- |main__t':378:404:421:553:571:590|) 1) 0)
               (= |__tmp_3137_1':376:405:422:554:572:591| 0)
               (= |main____CPAchecker_TMP_0___7':379:408:425:557:575:594| 0)
               (not (= (+ |main__t':378:404:421:553:571:590| (- havoc) 1) 0))
               (not (= |havoc:34:165:375:542:560:578:597| 0))
               (not (= (ite (<= (- |main__t':378:404:421:553:571:590|) 0) 1 0) 0))
               (= (ite (<= (+ |main__t':378:404:421:553:571:590| (- havoc) 1) 0)
                       1 0) 0)))
(check-sat)
